Optimal - objective value -16.00000000
     10 x_10                     1                       0
     26 x_26                     1                       0
     34 x_34                     1                       4
     35 x_35                     1                       0
     47 x_47                     1                       0
     52 x_52                     1                       0
     54 x_54                     1                       0
     55 x_55                     1                       0
     58 x_58                     1                       0
     63 x_63                     1                       0
     66 x_66                     1                       3
     72 x_72                     1                       0
     74 x_74                     1                       0
     80 x_80                     1                       0
     84 x_84                     1                       0
     89 x_89                     1                      -1
